NAME : tsp_248_sol.txt
COMMENT : OR-Tools Guided Local Search
TYPE : TOUR
DIMENSION : 50
COST : 5986
STATUS : ROUTING_SUCCESS
GAP : 0.00% (Reference Solution)
TOUR_SECTION
1
30
31
12
21
2
16
15
37
6
5
4
24
20
42
7
41
48
43
23
50
34
46
3
44
39
38
36
9
33
8
22
19
18
45
11
25
27
47
26
13
40
32
49
35
10
29
28
14
17
-1
